70
2 1 2
3 1 6
3 2 3
4 0 2
4 3 6
5 1 2
5 3 4
6 0 7
6 4 6
7 0 6
7 2 8
7 3 6
7 4 5
7 6 8
8 0 8
8 1 1
8 2 4
8 3 5
8 4 1
8 5 6
9 1 5
9 4 7
9 5 5
9 6 3
9 8 5
10 0 1
10 1 7
10 5 3
10 6 8
10 7 1
10 9 5
11 0 2
11 4 8
11 6 2
11 8 8
12 0 4
12 1 6
12 3 7
12 6 1
12 8 7
12 9 6
12 10 1
12 11 4
13 2 6
13 5 4
13 7 5
13 9 8
13 10 6
13 12 2
14 1 2
14 2 5
14 6 5
14 7 2
14 8 5
14 10 4
14 12 1
14 13 5
15 1 2
15 4 8
15 5 7
15 7 6
15 8 2
15 9 1
15 14 6
16 0 5
16 1 5
16 2 8
16 6 5
16 8 3
16 9 5
16 10 8
16 12 1
16 15 4
17 0 2
17 1 3
17 4 7
17 5 5
17 7 7
17 8 7
17 9 6
17 11 6
17 12 6
17 15 4
18 1 5
18 3 1
18 5 5
18 7 2
18 8 6
18 10 3
18 11 5
18 14 2
19 0 4
19 4 2
19 5 4
19 8 4
19 10 3
19 11 5
19 14 1
19 15 7
19 17 3
19 18 4
20 0 8
20 4 4
20 5 7
20 7 5
20 10 3
20 12 1
20 14 8
20 16 8
20 19 6
21 0 3
21 1 6
21 4 7
21 6 6
21 7 4
21 8 3
21 9 6
21 10 8
21 11 8
21 14 1
21 15 1
21 16 2
22 0 5
22 1 8
22 2 4
22 12 6
22 13 7
22 14 8
22 16 4
22 19 3
22 21 2
23 0 5
23 2 5
23 3 6
23 5 4
23 7 3
23 10 6
23 13 4
23 14 6
23 15 2
23 16 8
23 18 2
23 20 4
23 21 7
23 22 4
24 0 8
24 4 4
24 6 8
24 8 1
24 9 6
24 10 7
24 11 2
24 13 6
24 14 2
24 16 4
24 17 7
24 21 4
24 23 5
25 0 5
25 2 7
25 3 1
25 4 2
25 5 1
25 6 5
25 8 2
25 10 1
25 11 2
25 12 4
25 13 7
25 16 5
25 18 1
26 0 4
26 5 8
26 7 6
26 8 5
26 10 4
26 12 4
26 13 5
26 14 1
26 15 4
26 16 4
26 17 1
26 18 5
26 20 4
26 22 3
26 23 7
27 0 3
27 1 3
27 3 6
27 6 3
27 10 5
27 12 8
27 14 7
27 15 1
27 16 6
27 18 5
27 20 6
27 21 1
27 26 5
28 0 5
28 1 7
28 3 4
28 5 2
28 7 1
28 8 5
28 9 3
28 10 1
28 12 6
28 14 4
28 16 8
28 17 4
28 20 7
28 21 1
28 22 3
28 24 5
28 25 8
29 0 2
29 2 4
29 6 2
29 8 4
29 10 3
29 12 3
29 16 4
29 22 6
29 24 5
29 28 6
30 0 4
30 1 1
30 3 8
30 5 5
30 7 5
30 9 8
30 10 2
30 12 4
30 13 6
30 14 1
30 17 5
30 18 6
30 19 8
30 20 7
30 21 4
30 22 1
30 23 7
30 24 3
30 25 8
30 28 4
31 0 5
31 2 4
31 3 8
31 6 2
31 7 3
31 9 1
31 10 1
31 12 5
31 14 2
31 15 7
31 17 3
31 21 5
31 23 3
31 24 8
31 26 2
31 29 6
31 30 4
32 4 2
32 6 4
32 7 8
32 8 2
32 9 4
32 12 7
32 15 5
32 18 7
32 19 2
32 20 1
32 21 3
32 22 4
32 23 8
32 25 8
32 26 7
32 27 6
32 29 1
33 3 8
33 4 1
33 7 1
33 9 5
33 10 5
33 12 6
33 13 6
33 15 7
33 20 3
33 22 4
33 23 7
33 24 4
33 25 2
33 26 6
33 27 6
33 28 8
33 29 7
33 30 2
33 31 4
33 32 7
34 0 1
34 1 7
34 6 4
34 7 1
34 10 3
34 11 5
34 12 5
34 14 7
34 18 4
34 20 8
34 23 8
34 24 1
34 26 4
34 28 3
34 29 4
34 31 5
34 32 1
35 1 3
35 2 2
35 3 5
35 5 4
35 7 6
35 9 6
35 10 1
35 11 3
35 15 5
35 16 5
35 19 1
35 21 8
35 23 8
35 27 1
35 32 8
36 1 7
36 2 5
36 3 7
36 5 2
36 8 2
36 12 3
36 13 6
36 15 1
36 16 7
36 18 7
36 23 3
36 25 1
36 28 6
36 30 7
36 31 4
36 34 4
37 0 4
37 1 8
37 4 2
37 5 5
37 9 1
37 10 3
37 13 8
37 15 8
37 16 5
37 18 5
37 20 2
37 21 2
37 24 3
37 25 7
37 26 8
37 30 7
37 34 2
37 35 2
37 36 2
38 1 3
38 14 8
38 15 5
38 16 6
38 17 2
38 19 1
38 21 2
38 22 1
38 24 4
38 26 8
38 27 5
38 31 4
38 33 2
38 34 1
38 35 6
38 36 3
38 37 1
39 0 1
39 2 8
39 3 2
39 5 5
39 7 3
39 8 1
39 10 3
39 14 5
39 18 3
39 20 8
39 22 2
39 23 1
39 24 1
39 30 5
39 31 8
39 33 8
39 35 6
39 36 5
39 37 5
39 38 1
40 5 4
40 6 2
40 7 4
40 8 5
40 9 8
40 11 1
40 12 6
40 14 1
40 17 4
40 18 4
40 19 8
40 20 5
40 21 2
40 23 5
40 25 1
40 26 4
40 30 2
40 33 4
40 35 3
40 36 6
40 38 3
41 2 4
41 5 8
41 8 8
41 10 2
41 11 2
41 12 7
41 13 3
41 16 6
41 18 3
41 20 5
41 25 1
41 26 4
41 28 7
41 30 2
41 31 1
41 32 3
41 34 8
41 36 7
41 37 1
41 39 1
41 40 4
42 2 1
42 5 8
42 8 4
42 10 7
42 11 8
42 12 6
42 17 2
42 19 8
42 21 2
42 23 2
42 24 5
42 25 7
42 26 5
42 28 7
42 29 6
42 30 1
42 31 8
42 34 5
42 38 4
42 41 6
43 0 6
43 1 4
43 3 8
43 5 7
43 6 2
43 9 1
43 10 4
43 13 7
43 14 6
43 18 8
43 20 6
43 21 2
43 24 8
43 26 2
43 29 5
43 33 3
43 34 1
43 38 4
43 41 2
44 3 4
44 7 3
44 9 4
44 10 5
44 11 8
44 12 5
44 13 6
44 15 6
44 17 4
44 21 8
44 27 2
44 28 6
44 29 6
44 30 5
44 31 4
44 32 2
44 34 4
44 35 1
44 36 6
44 37 5
44 38 3
44 39 8
44 40 6
44 41 1
44 43 4
45 1 8
45 2 3
45 3 8
45 5 1
45 6 7
45 13 5
45 16 4
45 18 8
45 19 6
45 22 2
45 26 1
45 28 2
45 30 1
45 31 6
45 32 5
45 36 2
45 37 1
45 41 2
45 43 2
45 44 3
46 0 5
46 6 5
46 8 4
46 11 1
46 12 5
46 13 6
46 15 4
46 21 7
46 22 6
46 23 6
46 24 3
46 25 3
46 26 8
46 27 3
46 28 3
46 29 7
46 33 1
46 34 4
46 36 4
46 37 6
46 38 8
46 39 8
46 40 5
46 41 3
47 0 1
47 3 1
47 4 8
47 6 5
47 7 7
47 8 7
47 11 6
47 13 5
47 16 5
47 17 1
47 21 8
47 22 2
47 23 4
47 24 5
47 25 2
47 28 8
47 30 3
47 34 6
47 35 1
47 36 5
47 37 7
47 38 8
47 40 1
47 42 8
47 44 7
47 45 2
47 46 6
48 0 7
48 1 1
48 3 7
48 4 6
48 6 2
48 7 6
48 10 1
48 11 6
48 12 7
48 15 7
48 16 1
48 17 3
48 18 5
48 24 3
48 26 7
48 29 2
48 31 1
48 36 7
48 37 8
48 40 7
48 41 4
48 43 6
48 45 7
49 0 6
49 1 6
49 2 3
49 3 5
49 5 8
49 10 6
49 13 6
49 20 4
49 23 8
49 24 8
49 30 3
49 33 7
49 35 3
49 37 5
49 39 4
49 40 6
49 41 6
49 42 8
49 44 8
49 45 1
49 47 2
50 1 7
50 2 8
50 5 6
50 6 1
50 7 2
50 9 3
50 12 3
50 13 8
50 14 5
50 16 7
50 19 5
50 20 4
50 21 4
50 23 1
50 24 6
50 25 3
50 26 7
50 32 7
50 33 6
50 34 4
50 35 5
50 38 3
50 39 4
50 40 5
50 48 1
51 0 4
51 5 1
51 6 2
51 7 6
51 8 8
51 11 2
51 16 7
51 17 4
51 19 1
51 20 7
51 22 3
51 26 4
51 28 6
51 29 5
51 30 7
51 31 5
51 34 5
51 36 3
51 38 6
51 39 8
51 40 1
51 41 3
51 42 4
51 46 5
51 48 6
51 49 1
52 1 6
52 6 2
52 13 1
52 14 1
52 16 8
52 20 6
52 21 6
52 22 2
52 23 3
52 24 7
52 30 6
52 31 1
52 32 8
52 34 3
52 42 1
52 46 7
52 49 4
52 50 8
52 51 8
53 0 1
53 4 3
53 5 6
53 8 2
53 11 1
53 13 1
53 17 6
53 18 7
53 20 7
53 26 3
53 34 7
53 35 4
53 37 7
53 39 3
53 41 2
53 43 4
53 44 8
53 46 8
53 48 1
53 49 1
53 51 1
54 0 5
54 2 2
54 3 8
54 8 2
54 11 5
54 13 5
54 14 7
54 16 4
54 17 4
54 18 6
54 19 3
54 22 1
54 24 4
54 25 3
54 26 2
54 27 4
54 28 6
54 29 1
54 33 4
54 34 5
54 35 3
54 36 8
54 37 4
54 39 8
54 40 1
54 43 2
54 44 5
54 45 4
54 50 6
54 51 4
55 1 8
55 4 3
55 6 8
55 10 4
55 12 8
55 13 7
55 16 2
55 22 4
55 23 5
55 25 8
55 26 8
55 27 2
55 28 6
55 29 3
55 30 7
55 33 3
55 34 1
55 35 4
55 36 5
55 37 2
55 39 2
55 40 4
55 51 7
55 53 6
56 0 3
56 2 2
56 4 7
56 5 2
56 7 8
56 8 1
56 9 6
56 10 6
56 11 5
56 12 2
56 14 2
56 16 3
56 18 6
56 24 1
56 26 3
56 28 3
56 31 7
56 32 8
56 34 3
56 37 2
56 38 3
56 41 5
56 42 7
56 44 2
56 45 7
56 48 5
56 53 2
56 54 3
57 0 1
57 6 1
57 8 8
57 12 7
57 13 8
57 15 3
57 17 6
57 18 1
57 19 3
57 20 4
57 23 1
57 27 3
57 28 1
57 30 5
57 35 1
57 36 8
57 39 7
57 41 5
57 43 1
57 44 3
57 45 1
57 46 2
57 47 1
57 48 1
57 49 5
57 51 7
57 52 7
57 53 6
57 56 4
58 0 7
58 1 1
58 6 1
58 7 3
58 13 1
58 17 6
58 20 4
58 21 6
58 22 1
58 23 6
58 24 2
58 27 5
58 28 8
58 29 7
58 33 3
58 36 5
58 37 5
58 42 4
58 51 5
58 52 7
58 54 6
58 57 1
59 3 5
59 4 1
59 7 6
59 8 1
59 9 6
59 12 2
59 13 5
59 15 6
59 16 5
59 17 4
59 23 7
59 24 2
59 26 1
59 27 4
59 31 5
59 36 5
59 37 4
59 39 8
59 40 6
59 41 2
59 42 8
59 47 8
59 50 5
59 53 3
59 55 6
59 57 4
60 0 8
60 1 7
60 5 8
60 6 4
60 7 5
60 8 7
60 9 8
60 11 5
60 12 1
60 16 6
60 18 2
60 19 5
60 20 5
60 21 6
60 22 7
60 23 8
60 25 8
60 26 8
60 29 6
60 31 4
60 32 5
60 34 3
60 35 5
60 39 7
60 41 3
60 42 6
60 43 5
60 45 7
60 46 4
60 48 1
60 49 1
60 51 4
60 54 7
60 57 2
60 58 6
60 59 6
61 2 1
61 5 3
61 11 7
61 12 6
61 15 7
61 17 6
61 20 7
61 22 6
61 26 3
61 28 4
61 31 6
61 32 6
61 33 4
61 34 6
61 37 1
61 40 7
61 42 8
61 43 7
61 46 2
61 47 5
61 48 7
61 53 4
61 55 1
61 57 4
61 58 2
61 59 4
62 1 6
62 2 2
62 5 1
62 8 2
62 9 2
62 14 7
62 15 8
62 16 6
62 17 7
62 19 7
62 22 1
62 25 5
62 26 8
62 28 8
62 31 3
62 32 8
62 34 8
62 35 7
62 36 8
62 37 1
62 40 7
62 42 1
62 43 1
62 47 7
62 49 2
62 51 7
62 52 7
62 54 8
62 56 6
62 59 7
62 60 5
62 61 1
63 1 3
63 2 2
63 3 8
63 5 2
63 8 2
63 10 8
63 11 1
63 12 7
63 13 6
63 14 4
63 16 6
63 17 2
63 19 2
63 23 1
63 24 6
63 27 3
63 28 3
63 31 8
63 34 2
63 37 6
63 40 5
63 42 5
63 44 6
63 45 7
63 48 8
63 51 5
63 53 4
63 56 7
63 57 3
63 59 8
63 60 6
63 61 3
64 0 2
64 1 2
64 3 7
64 4 3
64 5 4
64 6 6
64 9 1
64 12 4
64 16 8
64 17 3
64 19 7
64 20 2
64 21 8
64 23 6
64 25 7
64 27 7
64 35 1
64 37 4
64 39 4
64 41 4
64 42 5
64 43 4
64 44 1
64 46 7
64 51 3
64 53 4
64 55 2
64 56 2
64 61 5
64 62 2
65 0 1
65 1 4
65 4 4
65 5 6
65 6 4
65 9 3
65 11 3
65 14 5
65 18 3
65 19 3
65 20 2
65 25 7
65 27 4
65 28 2
65 29 2
65 31 6
65 32 4
65 33 2
65 34 1
65 36 6
65 37 1
65 40 3
65 43 5
65 45 5
65 46 8
65 47 2
65 49 7
65 51 8
65 57 1
65 58 7
65 59 5
65 60 1
65 62 2
66 2 8
66 3 5
66 5 4
66 6 6
66 9 7
66 11 1
66 12 2
66 17 8
66 21 3
66 22 1
66 25 4
66 27 7
66 29 2
66 30 8
66 35 2
66 37 3
66 39 4
66 42 3
66 43 8
66 46 5
66 47 5
66 48 1
66 49 3
66 51 3
66 52 4
66 58 2
66 59 4
66 60 6
66 63 1
66 65 5
67 0 6
67 3 4
67 4 1
67 7 6
67 8 5
67 9 1
67 10 8
67 11 5
67 12 5
67 13 5
67 14 3
67 15 7
67 16 1
67 18 8
67 20 3
67 21 4
67 25 8
67 27 8
67 28 3
67 30 1
67 31 8
67 32 2
67 33 5
67 34 2
67 35 3
67 37 5
67 38 5
67 39 8
67 40 6
67 42 2
67 44 3
67 46 1
67 48 1
67 50 7
67 51 6
67 53 6
67 54 1
67 56 4
67 61 8
67 62 1
67 65 6
67 66 1
68 0 4
68 3 4
68 4 7
68 6 5
68 8 4
68 10 1
68 11 8
68 12 2
68 13 8
68 15 2
68 17 8
68 20 1
68 21 3
68 23 4
68 24 7
68 25 7
68 29 2
68 31 7
68 34 3
68 36 5
68 37 7
68 38 5
68 39 1
68 41 7
68 42 7
68 44 8
68 46 3
68 47 5
68 49 1
68 50 1
68 51 4
68 52 1
68 53 6
68 54 4
68 56 2
68 58 5
68 63 3
68 64 3
68 66 6
69 0 7
69 4 7
69 6 4
69 7 5
69 8 5
69 9 2
69 12 4
69 13 4
69 14 3
69 15 2
69 18 4
69 20 2
69 22 2
69 23 5
69 24 8
69 25 6
69 26 3
69 29 5
69 31 2
69 32 8
69 35 6
69 37 7
69 38 8
69 39 6
69 46 1
69 47 4
69 48 2
69 49 1
69 50 8
69 55 3
69 56 3
69 57 4
69 58 6
69 59 5
69 60 3
69 63 6
69 68 1
